%BLOCK POSITIONS_ABS
C 0.481674 1.737386 1.039126 # 1-ade % NUM=2
C -0.219198 1.135073 -0.024743 # 1-ade
C -0.640683 -0.181289 0.130808 # 1-ade
C 0.189837 -0.331803 2.177565 # 1-ade
C -1.179371 0.62395 -1.840782 # 1-ade
C -1.917795 -1.752954 -1.410702 # 1-ade
C -1.060695 -3.031749 -1.257187 # 1-ade
C -2.129113 -4.117096 -0.905274 # 1-ade
C -3.425896 -3.313596 -0.67031 # 1-ade
C -4.197731 -3.730047 0.56036 # 1-ade
H 0.822263 3.480192 0.082171 # 1-ade
H 1.610561 3.381101 1.602199 # 1-ade
H -2.229486 -1.645451 -2.456067 # 1-ade
H 0.390548 -0.893546 3.085756 # 1-ade
H -1.603039 0.637361 -2.834319 # 1-ade
H -0.368023 -2.9075 -0.426349 # 1-ade
H -1.828831 -4.671881 -0.015306 # 1-ade
H -4.059512 -3.426521 -1.558316 # 1-ade
H -1.901977 -5.859455 -1.808212 # 1-ade
H -0.833627 -3.956399 -2.939583 # 1-ade
H -3.609663 -3.506029 1.458297 # 1-ade
H -4.360095 -4.813815 0.513498 # 1-ade
H -5.922708 -3.272547 1.382009 # 1-ade
N 0.634905 0.976193 2.177974 # 1-ade
N -0.438381 -0.953477 1.220035 # 1-ade
N 0.965425 2.973018 0.943785 # 1-ade
N -0.557799 1.622676 -1.267879 # 1-ade
N -1.256863 -0.509387 -1.050564 # 1-ade
O -3.027387 -1.934382 -0.554303 # 1-ade
O -2.320132 -5.011652 -1.99854 # 1-ade
O -0.307716 -3.336848 -2.406232 # 1-ade
O -5.44255 -3.033454 0.579963 # 1-ade  
Fe 1.16834 1.625933 3.966059 # 1-ade
%ENDBLOCK POSITIONS_ABS

#TARGVOL=550-800

##SPECIES=
##NATOM=3-9
##FOCUS=1

##ADJGEN=0-1

#SYMMOPS=1
#SGRANK=20
#SLACK=0.25
#OVERLAP=0.1

#NFORM=1
#MINSEP=1.8 Fe-N=2.0 Fe-O=2.0 Fe-C=2.0 Fe-H=2.0
#COMPACT
#CELLADAPT
##SYSTEM={Rhom,Tric,Mono,Cubi,Hexa,Orth,Tetra}

KPOINTS_MP_SPACING 0.07

SYMMETRY_GENERATE
SNAP_TO_SYMMETRY # space group

%BLOCK SPECIES_POT
QC5 # ultra soft etc
%ENDBLOCK SPECIES_POT

%BLOCK EXTERNAL_PRESSURE
0 0 0
0 0
0
%ENDBLOCK EXTERNAL_PRESSURE
