%BLOCK POSITIONS_ABS
C -4.16863971201562 1.70963849749718 0.291034600899762 # 1-ade
C -1.05741171201562 0.0811654974971774 0.376125600899762 # 1-ade
C -1.75661671201562 -0.299488502502822 1.68916360089976 # 1-ade
C -3.21469971201562 -0.501689502502823 1.21967560089976 # 1-ade
C -3.34371671201562 0.459452497497177 0.0292656008997623 # 1-ade
C 0.134231287984378 2.25450849749718 0.712849600899762 # 1-ade
C 3.48988528798438 -0.586788502502822 0.793641600899762 # 1-ade
C 3.57345128798438 1.68756149749718 1.05119660089976 # 1-ade
C 2.17048728798438 1.71672749749718 0.890982600899762 # 1-ade
C 1.48840828798438 0.517162497497177 0.672833600899762 # 1-ade
H 3.87625928798438 3.68892849749718 1.29073060089976 # 1-ade % NUM=2
H 5.30366328798438 2.70210249749718 1.35815760089976 # 1-ade
H -0.82348971201562 -0.813640502502822 -0.200634399100238 # 1-ade
H 4.03293628798438 -1.52594350250282 0.766273600899762 # 1-ade
H -0.795482712015621 2.79495649749718 0.655418600899762 # 1-ade
H -1.69665771201562 0.538035497497177 2.38800560089976 # 1-ade
H -3.92657271201562 -0.270308502502823 2.01869160089976 # 1-ade
H -3.75059871201562 -0.0801825025028227 -0.829020399100239 # 1-ade
H -2.99420271201562 -2.42993750250282 1.38899860089976 # 1-ade
H -1.14755771201562 -1.40467450250282 3.19982260089976 # 1-ade
H -3.77732271201562 2.25273649749718 1.15975160089976 # 1-ade
H -5.19856071201562 1.41910849749718 0.505420600899762 # 1-ade
H -3.33325471201562 2.88076449749718 -1.04352339910024 # 1-ade
N 4.20620328798438 0.483425497497177 1.00084260089976 # 1-ade
N 2.13374828798438 -0.690529502502823 0.612068600899762 # 1-ade
N 4.30250428798438 2.77530049749718 1.24995860089976 # 1-ade
N 1.31095728798438 2.78471749749718 0.910154600899762 # 1-ade
N 0.16346928798438 0.878243497497178 0.552827600899762 # 1-ade
O -1.98595471201562 0.877910497497177 -0.317727399100238 # 1-ade
O -3.40841771201562 -1.82935750250282 0.751251600899763 # 1-ade
O -1.18150871201562 -1.46997750250282 2.23803760089976 # 1-ade
O -4.22329171201562 2.55873549749718 -0.850828399100239 # 1-ade
Fe 1.61659528798438 -2.57097450250282 0.336310600899762 # 1-ade
%ENDBLOCK POSITIONS_ABS

#TARGVOL=600

##SPECIES=
##NATOM=3-9
##FOCUS=1

##ADJGEN=0-1

#SYMMOPS=1
#SGRANK=20
#SLACK=0.25
#OVERLAP=0.1

#NFORM=1
#MINSEP=1.8 Fe-N=2.0 Fe-O=2.0 Fe-C=2.0 Fe-H=2.0
#COMPACT
#CELLADAPT
##SYSTEM={Rhom,Tric,Mono,Cubi,Hexa,Orth,Tetra}

KPOINTS_MP_SPACING 0.07

SYMMETRY_GENERATE
SNAP_TO_SYMMETRY # space group

%BLOCK SPECIES_POT
QC5 # ultra soft etc
%ENDBLOCK SPECIES_POT

%BLOCK EXTERNAL_PRESSURE
0 0 0
0 0
0
%ENDBLOCK EXTERNAL_PRESSURE

                                                                                                                                                                                                                                       1,1           Top
