%BLOCK POSITIONS_ABS
C 1.49513575314213 2.8604524 3.29378603083735 # 1-ade % NUM=2
C 3.7749796977423 -0.7423604 2.65324746728616 # 1-ade
C 2.40412115210657 3.2501402 4.46083386324771 # 1-ade
C 2.58887041077509 4.7461712 4.21185451189895 # 1-ade
C 2.96646361212595 1.2225298 2.08572545385882 # 1-ade
C 1.23086812798484 5.1656768 3.66810551408107 # 1-ade
C 3.57308875527979 1.197853 0.845467277007483 # 1-ade
C 1.26705612710548 6.3511914 2.73643860196121 # 1-ade
C 4.33113210528052 0.0421561999999999 0.540441017865147 # 1-ade
C 2.488401097427 3.012626 0.934419192915926 # 1-ade
H 3.93306411495351 -1.398352 3.32846405118361 # 1-ade
H 0.642813142274483 5.326076 4.4229443110288 # 1-ade
H 1.5379899626271 7.125426 3.22410648490594 # 1-ade
H 1.88082363850682 6.200046 1.97384231745463 # 1-ade
H -0.114277891959908 7.464732 2.02862372248377 # 1-ade
H 2.09985626476331 3.866032 0.743851349360742 # 1-ade
H 5.37106092211568 -0.956226 -0.784960956737154 # 1-ade
H 4.90918777544439 0.431844 -1.27683032836525 # 1-ade
H 0.8713689261943 2.118092 3.55790686606126 # 1-ade
H 3.19501939604577 2.745294 4.45427850889129 # 1-ade
H 1.57132101444874 2.231194 5.81970831584817 # 1-ade
H 3.25215834202572 4.873668 3.5581966476494 # 1-ade
H 2.52839835961297 5.171846 6.01767089004661 # 1-ade
N 4.3977942089238 -0.9243518 1.48127617974962 # 1-ade
N 4.979659142153 -0.1511454 -0.607365657230244 # 1-ade
N 3.03979192613356 0.2899524 3.05739108193174 # 1-ade
N 3.26501460487121 2.339155 0.123874453869977 # 1-ade
N 2.27032078693684 2.405988 2.13469671332245 # 1-ade
O 0.753757929052228 4.0068954 2.93872440545081 # 1-ade
O 1.70416906385213 3.094882 5.67617671346079 # 1-ade
O 3.01931713715741 5.4875034 5.34140065721008 # 1-ade
O -0.0395211043028025 6.6031004 2.24101882902564 # 1-ade
Fe 0 0 0 # 2-fe % NUM=2
%ENDBLOCK POSITIONS_ABS

#TARGVOL=600

##SPECIES=
##NATOM=3-9
##FOCUS=1

##ADJGEN=0-1

#SYMMOPS=1
#SGRANK=20
#SLACK=0.25
#OVERLAP=0.1

#NFORM=1
#MINSEP=1.8 Fe-N=2.0 Fe-O=2.0 Fe-C=2.0 Fe-H=2.0
#COMPACT
#CELLADAPT
##SYSTEM={Rhom,Tric,Mono,Cubi,Hexa,Orth,Tetra}

KPOINTS_MP_SPACING 0.07

SYMMETRY_GENERATE
SNAP_TO_SYMMETRY # space group

%BLOCK SPECIES_POT
QC5 # ultra soft etc
%ENDBLOCK SPECIES_POT

%BLOCK EXTERNAL_PRESSURE
0 0 0
0 0
0
%ENDBLOCK EXTERNAL_PRESSURE
