%BLOCK LATTICE_ABC
      6.62355     11.42260     17.01553
    105.27758     92.88759    103.31496
%ENDBLOCK LATTICE_ABC

%BLOCK POSITIONS_FRAC
   C        0.0385596        0.2106691       -0.4116369
   C       -0.1507021        0.4007060       -0.5793806
   C        0.1515010        0.1395619       -0.4768800
   C        0.3528324        0.1463023       -0.4260295
   C        0.0142556        0.3911006       -0.4667060
   C        0.2789447        0.1363035       -0.3442438
   C        0.0966607        0.5193371       -0.4394583
   C        0.4424235        0.1999941       -0.2711055
   C        0.0406195        0.5897488       -0.4902562
   C        0.2030501        0.4458371       -0.3479311
   H       -0.2267162        0.3584803       -0.6323274
   H        0.2243600        0.0480907       -0.3486461
   H        0.5515320        0.1575608       -0.2752267
   H        0.5008185        0.2896865       -0.2669932
   H        0.4520969        0.1932148       -0.1600360
   H        0.2698520        0.4355276       -0.2999101
   H        0.0519414        0.7550994       -0.5054921
   H        0.1811648        0.7600904       -0.4260822
   H       -0.1170104        0.1756814       -0.4240109
   H        0.1700918        0.1765661       -0.5199901
   H       -0.0798942        0.0077039       -0.5340565
   H        0.4470800        0.2246062       -0.4191083
   H        0.3608820       -0.0154983       -0.4818288
   N       -0.0867854        0.5259726       -0.5603771
   N        0.1052537        0.7140735       -0.4734561
   N       -0.1090761        0.3244679       -0.5372012
   N        0.2164520        0.5530564       -0.3641099
   N        0.0849304        0.3443525       -0.4070496
   O        0.1085258        0.1971197       -0.3356172
   O        0.0389337        0.0125467       -0.5056142
   O        0.4608587        0.0556742       -0.4620860
   O        0.3527263        0.1901722       -0.1983204
   C        0.2138665        0.4165194        0.1069549
   C       -0.1626463        0.5374672        0.2965895
   C        0.0727509        0.2831637        0.0838418
   C        0.0531165        0.2486444       -0.0097727
   C       -0.0240078        0.5378957        0.1818790
   C        0.2683333        0.3130526       -0.0261414
   C       -0.1172550        0.6280971        0.1679154
   C        0.2709345        0.3500302       -0.1049579
   C       -0.2420744        0.6746019        0.2277170
   C        0.0627574        0.5852435        0.0699706
   H       -0.1921002        0.4992666        0.3397270
   H        0.3601172        0.2585307       -0.0242757
   H        0.2326010        0.2761426       -0.1503126
   H        0.1752012        0.4042628       -0.1076871
   H        0.4941295        0.4051540       -0.1640839
   H        0.1287360        0.5816445        0.0209416
   H       -0.4086450        0.7945546        0.2674446
   H       -0.3276511        0.7998337        0.1846530
   H        0.3065002        0.4347933        0.1596141
   H       -0.0537191        0.2816567        0.1065264
   H        0.1949566        0.2240332        0.1636189
   H       -0.0488344        0.2830414       -0.0288794
   H        0.0627432        0.0840256       -0.0207756
   N       -0.2594441        0.6268970        0.2924538
   N       -0.3429852        0.7617625        0.2242011
   N       -0.0422567        0.4862854        0.2447516
   N       -0.0614408        0.6573198        0.0966945
   N        0.0916445        0.5104358        0.1178290
   O        0.3368856        0.4253389        0.0424325
   O        0.1795323        0.2034498        0.1093233
   O       -0.0111493        0.1181096       -0.0497083
   O        0.4770642        0.4148352       -0.1113742
  Fe       -0.1333951        0.1378533        0.4084995
  Fe       -0.2045139        0.4528706        0.0604479
%ENDBLOCK POSITIONS_FRAC

KPOINTS_MP_SPACING 0.07

%BLOCK SPECIES_POT
QC5 # ultra soft etc
%ENDBLOCK SPECIES_POT

SNAP_TO_SYMMETRY
SYMMETRY_GENERATE

%BLOCK EXTERNAL_PRESSURE
0 0 0
0 0
0
%ENDBLOCK EXTERNAL_PRESSURE
